25° run output:
{
    "Function": "kroA500.tsp",
    "Problem dimension": [
        31,
        482,
        365,
        145,
        24,
        475,
        428,
        472,
        394,
        53,
        436,
        442,
        268,
        7,
        102,
        324,
        445,
        396,
        48,
        81,
        420,
        172,
        26,
        254,
        40,
        340,
        329,
        111,
        134,
        314,
        66,
        403,
        221,
        327,
        485,
        248,
        415,
        15,
        407,
        390,
        150,
        496,
        363,
        378,
        159,
        46,
        229,
        222,
        273,
        86,
        422,
        288,
        464,
        269,
        79,
        437,
        389,
        197,
        274,
        27,
        227,
        140,
        350,
        143,
        371,
        337,
        219,
        276,
        4,
        479,
        353,
        369,
        293,
        182,
        72,
        91,
        280,
        148,
        218,
        118,
        237,
        125,
        493,
        39,
        202,
        106,
        266,
        383,
        230,
        241,
        457,
        144,
        25,
        3,
        450,
        451,
        284,
        326,
        5,
        366,
        13,
        255,
        309,
        455,
        63,
        108,
        167,
        157,
        96,
        349,
        180,
        454,
        152,
        364,
        77,
        8,
        242,
        136,
        367,
        213,
        478,
        58,
        330,
        101,
        441,
        139,
        211,
        278,
        198,
        23,
        217,
        402,
        252,
        461,
        30,
        238,
        94,
        408,
        423,
        151,
        360,
        153,
        435,
        405,
        189,
        335,
        347,
        245,
        497,
        146,
        303,
        243,
        11,
        477,
        57,
        467,
        187,
        348,
        306,
        42,
        432,
        434,
        344,
        286,
        298,
        178,
        231,
        449,
        114,
        161,
        304,
        250,
        88,
        312,
        440,
        359,
        45,
        107,
        466,
        376,
        417,
        334,
        208,
        175,
        262,
        387,
        379,
        495,
        124,
        346,
        410,
        362,
        265,
        97,
        226,
        302,
        232,
        431,
        177,
        171,
        109,
        341,
        246,
        446,
        121,
        67,
        201,
        285,
        240,
        316,
        452,
        100,
        28,
        224,
        160,
        370,
        301,
        87,
        465,
        372,
        190,
        123,
        17,
        271,
        368,
        409,
        35,
        92,
        322,
        204,
        22,
        168,
        382,
        342,
        310,
        469,
        244,
        336,
        183,
        192,
        73,
        43,
        9,
        393,
        89,
        488,
        462,
        154,
        429,
        212,
        169,
        51,
        127,
        115,
        225,
        141,
        498,
        272,
        54,
        71,
        147,
        173,
        463,
        142,
        21,
        419,
        483,
        357,
        381,
        325,
        83,
        10,
        282,
        484,
        0,
        247,
        279,
        321,
        425,
        456,
        491,
        270,
        209,
        343,
        38,
        33,
        308,
        80,
        377,
        68,
        474,
        470,
        82,
        74,
        430,
        174,
        481,
        358,
        184,
        433,
        55,
        290,
        305,
        404,
        19,
        354,
        129,
        494,
        236,
        459,
        113,
        128,
        162,
        418,
        315,
        443,
        352,
        166,
        492,
        307,
        426,
        61,
        210,
        239,
        424,
        380,
        181,
        338,
        261,
        44,
        251,
        313,
        16,
        323,
        133,
        49,
        427,
        60,
        50,
        200,
        317,
        333,
        300,
        386,
        277,
        257,
        76,
        78,
        447,
        392,
        104,
        69,
        411,
        149,
        163,
        267,
        170,
        401,
        1,
        158,
        18,
        234,
        400,
        56,
        228,
        489,
        311,
        223,
        47,
        356,
        137,
        130,
        95,
        65,
        52,
        361,
        487,
        318,
        90,
        373,
        490,
        32,
        155,
        131,
        256,
        191,
        384,
        374,
        458,
        414,
        205,
        193,
        331,
        295,
        122,
        249,
        398,
        194,
        216,
        253,
        235,
        395,
        20,
        84,
        406,
        473,
        37,
        164,
        292,
        62,
        117,
        214,
        345,
        186,
        165,
        215,
        486,
        2,
        460,
        296,
        199,
        156,
        99,
        264,
        391,
        98,
        135,
        291,
        320,
        93,
        328,
        207,
        116,
        397,
        297,
        375,
        259,
        499,
        260,
        36,
        468,
        75,
        351,
        179,
        12,
        413,
        85,
        112,
        14,
        185,
        64,
        438,
        263,
        385,
        294,
        29,
        421,
        70,
        471,
        195,
        281,
        138,
        132,
        34,
        258,
        287,
        103,
        416,
        206,
        41,
        126,
        119,
        176,
        444,
        332,
        220,
        110,
        289,
        439,
        299,
        233,
        283,
        120,
        319,
        453,
        203,
        480,
        196,
        59,
        412,
        105,
        388,
        339,
        188,
        448,
        476,
        399,
        275,
        355,
        6
    ],
    "Global Optimum": 0,
    "Algorithm": "Genetic algorithm",
    "Parameters": {
        "population": 30,
        "offspring": 30,
        "mutation probability": 0.002,
        "crossover probability": 0.9
    },
    "Fitness": 583164,
    "Solution": [
        31,
        482,
        365,
        145,
        24,
        475,
        428,
        472,
        394,
        53,
        436,
        442,
        268,
        7,
        102,
        324,
        445,
        396,
        48,
        81,
        420,
        172,
        26,
        254,
        40,
        340,
        329,
        111,
        134,
        314,
        66,
        403,
        221,
        327,
        485,
        248,
        415,
        15,
        407,
        390,
        150,
        496,
        363,
        378,
        159,
        46,
        229,
        222,
        273,
        86,
        422,
        288,
        464,
        269,
        79,
        437,
        389,
        197,
        274,
        27,
        227,
        140,
        350,
        143,
        371,
        337,
        219,
        276,
        4,
        479,
        353,
        369,
        293,
        182,
        72,
        91,
        280,
        148,
        218,
        118,
        237,
        125,
        493,
        39,
        202,
        106,
        266,
        383,
        230,
        241,
        457,
        144,
        25,
        3,
        450,
        451,
        284,
        326,
        5,
        366,
        13,
        255,
        309,
        455,
        63,
        108,
        167,
        157,
        96,
        349,
        180,
        454,
        152,
        364,
        77,
        8,
        242,
        136,
        367,
        213,
        478,
        58,
        330,
        101,
        441,
        139,
        211,
        278,
        198,
        23,
        217,
        402,
        252,
        461,
        30,
        238,
        94,
        408,
        423,
        151,
        360,
        153,
        435,
        405,
        189,
        335,
        347,
        245,
        497,
        146,
        303,
        243,
        11,
        477,
        57,
        467,
        187,
        348,
        306,
        42,
        432,
        434,
        344,
        286,
        298,
        178,
        231,
        449,
        114,
        161,
        304,
        250,
        88,
        312,
        440,
        359,
        45,
        107,
        466,
        376,
        417,
        334,
        208,
        175,
        262,
        387,
        379,
        495,
        124,
        346,
        410,
        362,
        265,
        97,
        226,
        302,
        232,
        431,
        177,
        171,
        109,
        341,
        246,
        446,
        121,
        67,
        201,
        285,
        240,
        316,
        452,
        100,
        28,
        224,
        160,
        370,
        301,
        87,
        465,
        372,
        190,
        123,
        17,
        271,
        368,
        409,
        35,
        92,
        322,
        204,
        22,
        168,
        382,
        342,
        310,
        469,
        244,
        336,
        183,
        192,
        73,
        43,
        9,
        393,
        89,
        488,
        462,
        154,
        429,
        212,
        169,
        51,
        127,
        115,
        225,
        141,
        498,
        272,
        54,
        71,
        147,
        173,
        463,
        142,
        21,
        419,
        483,
        357,
        381,
        325,
        83,
        10,
        282,
        484,
        0,
        247,
        279,
        321,
        425,
        456,
        491,
        270,
        209,
        343,
        38,
        33,
        308,
        80,
        377,
        68,
        474,
        470,
        82,
        74,
        430,
        174,
        481,
        358,
        184,
        433,
        55,
        290,
        305,
        404,
        19,
        354,
        129,
        494,
        236,
        459,
        113,
        128,
        162,
        418,
        315,
        443,
        352,
        166,
        492,
        307,
        426,
        61,
        210,
        239,
        424,
        380,
        181,
        338,
        261,
        44,
        251,
        313,
        16,
        323,
        133,
        49,
        427,
        60,
        50,
        200,
        317,
        333,
        300,
        386,
        277,
        257,
        76,
        78,
        447,
        392,
        104,
        69,
        411,
        149,
        163,
        267,
        170,
        401,
        1,
        158,
        18,
        234,
        400,
        56,
        228,
        489,
        311,
        223,
        47,
        356,
        137,
        130,
        95,
        65,
        52,
        361,
        487,
        318,
        90,
        373,
        490,
        32,
        155,
        131,
        256,
        191,
        384,
        374,
        458,
        414,
        205,
        193,
        331,
        295,
        122,
        249,
        398,
        194,
        216,
        253,
        235,
        395,
        20,
        84,
        406,
        473,
        37,
        164,
        292,
        62,
        117,
        214,
        345,
        186,
        165,
        215,
        486,
        2,
        460,
        296,
        199,
        156,
        99,
        264,
        391,
        98,
        135,
        291,
        320,
        93,
        328,
        207,
        116,
        397,
        297,
        375,
        259,
        499,
        260,
        36,
        468,
        75,
        351,
        179,
        12,
        413,
        85,
        112,
        14,
        185,
        64,
        438,
        263,
        385,
        294,
        29,
        421,
        70,
        471,
        195,
        281,
        138,
        132,
        34,
        258,
        287,
        103,
        416,
        206,
        41,
        126,
        119,
        176,
        444,
        332,
        220,
        110,
        289,
        439,
        299,
        233,
        283,
        120,
        319,
        453,
        203,
        480,
        196,
        59,
        412,
        105,
        388,
        339,
        188,
        448,
        476,
        399,
        275,
        355,
        6
    ],
    "Nb of functions evaluations": 200010,
    "Computational time in seconds": 803.2063219547272,
    "Stopping criterion in evaluations": 200000
}